c Random 3-SAT formula
c Number of variables: 5
c Number of clauses: 21
p cnf 5 21
2 -4 5 0
-5 -1 -4 0
-5 -3 4 0
1 4 2 0
5 -2 -1 0
-2 1 3 0
-1 -4 2 0
-3 -1 -2 0
-5 2 -1 0
3 -1 5 0
2 4 -3 0
2 1 -4 0
-4 2 -1 0
4 2 -5 0
-3 5 2 0
2 1 -3 0
4 -3 -5 0
4 -1 -3 0
3 1 -4 0
-2 -4 1 0
1 -2 3 0
